3 3 2
25 1 8 0 31 1 36 2 16 0 19 1 16 0 29 1 2 0 32 2 44 1 8 0 44 2 45 1 38 0 40 2 17 0 46 2 10 0 45 2 11 0 34 1 11 0 12 2 6 1 42 
25 0 15 1 20 2 45 0 26 1 33 0 26 2 33 0 21 2 21 1 8 0 15 2 32 0 0 1 31 2 8 1 6 2 49 0 2 1 7 2 37 1 31 0 23 1 33 0 36 2 12 
25 1 19 0 45 1 5 2 20 0 25 1 10 2 19 0 21 2 12 0 1 1 26 2 35 1 2 2 32 1 5 0 14 2 7 0 2 1 21 2 19 0 40 1 2 0 27 1 18 2 42 

-------------
